N = 6;
H = 6;
T = 2;

avail = array3d(1..N, 1..H, 1..T, [8, 6, 6, 1, 3, 0, 8, 6, 3, 4, 2, 8, 3, 8, 5, 1, 5, 1, 0, 2, 4, 0, 10, 4, 3, 0, 5, 0, 8, 9, 2, 7, 0, 7, 6, 10, 7, 0, 7, 9, 8, 6, 8, 0, 8, 4, 2, 5, 4, 2, 2, 4, 3, 2, 0, 9, 5, 9, 1, 7, 9, 9, 3, 0, 10, 2, 0, 7, 5, 5, 9, 6]);

r = array2d(1..H, 1..T, [2, 1, 2, 0, 2, 1, 2, 1, 0, 0, 2, 1]);
